presolving:
(round 1, fast)       100 del vars, 0 del conss, 0 add conss, 0 chg bounds, 0 chg sides, 0 chg coeffs, 0 upgd conss, 0 impls, 198 clqs
(round 2, exhaustive) 100 del vars, 0 del conss, 0 add conss, 0 chg bounds, 0 chg sides, 0 chg coeffs, 198 upgd conss, 0 impls, 198 clqs
   (0.0s) probing: 51/9702 (0.5%) - 0 fixings, 0 aggregations, 0 implications, 0 bound changes
   (0.0s) probing aborted: 50/50 successive totally useless probings
   Deactivated symmetry handling methods, since SCIP was built without symmetry detector (SYM=none).
presolving (3 rounds: 3 fast, 2 medium, 2 exhaustive):
 100 deleted vars, 0 deleted constraints, 0 added constraints, 0 tightened bounds, 0 added holes, 0 changed sides, 0 changed coefficients
 0 implications, 198 cliques
presolved problem has 9800 variables (9702 bin, 0 int, 0 impl, 98 cont) and 9704 constraints
    198 constraints of type <setppc>
   9506 constraints of type <linear>
Presolving Time: 0.00

 time | node  | left  |LP iter|LP it/n|mem/heur|mdpt |vars |cons |rows |cuts |sepa|confs|strbr|  dualbound   | primalbound  |  gap   | compl. 
p 1.0s|     1 |     0 |     6 |     - | vbounds|   0 |9800 |9710 |9704 |   0 |  0 |   5 |   0 | 0.000000e+00 | 2.146081e+03 |    Inf | unknown
  1.0s|     1 |     0 |   338 |     - |   124M |   0 |9800 |9710 |9704 |   0 |  0 |   5 |   0 | 1.095893e+03 | 2.146081e+03 |  95.83%| unknown
  1.0s|     1 |     0 |   467 |     - |   127M |   0 |9800 |9710 |9774 |  70 |  1 |   5 |   0 | 1.153978e+03 | 2.146081e+03 |  85.97%| unknown
  1.0s|     1 |     0 |   534 |     - |   129M |   0 |9800 |9710 |9814 | 110 |  2 |   5 |   0 | 1.176267e+03 | 2.146081e+03 |  82.45%| unknown
  1.0s|     1 |     0 |   548 |     - |   131M |   0 |9800 |9710 |9817 | 113 |  3 |   5 |   0 | 1.181593e+03 | 2.146081e+03 |  81.63%| unknown
  1.0s|     1 |     0 |   599 |     - |   132M |   0 |9800 |9710 |9837 | 133 |  4 |   5 |   0 | 1.183291e+03 | 2.146081e+03 |  81.37%| unknown
  1.0s|     1 |     0 |   641 |     - |   133M |   0 |9800 |9710 |9856 | 152 |  5 |   5 |   0 | 1.201462e+03 | 2.146081e+03 |  78.62%| unknown
  2.0s|     1 |     0 |   671 |     - |   135M |   0 |9800 |9710 |9864 | 160 |  6 |   5 |   0 | 1.202531e+03 | 2.146081e+03 |  78.46%| unknown
  2.0s|     1 |     0 |   684 |     - |   136M |   0 |9800 |9710 |9872 | 168 |  7 |   5 |   0 | 1.202531e+03 | 2.146081e+03 |  78.46%| unknown
  2.0s|     1 |     0 |   702 |     - |   137M |   0 |9800 |9710 |9875 | 171 |  8 |   5 |   0 | 1.202593e+03 | 2.146081e+03 |  78.45%| unknown
  2.0s|     1 |     0 |   711 |     - |   138M |   0 |9800 |9710 |9883 | 179 |  9 |   5 |   0 | 1.202593e+03 | 2.146081e+03 |  78.45%| unknown
  2.0s|     1 |     0 |   727 |     - |   139M |   0 |9800 |9710 |9892 | 188 | 10 |   5 |   0 | 1.202593e+03 | 2.146081e+03 |  78.45%| unknown
  2.0s|     1 |     0 |   759 |     - |   140M |   0 |9800 |9710 |9904 | 200 | 11 |   5 |   0 | 1.203548e+03 | 2.146081e+03 |  78.31%| unknown
  3.0s|     1 |     0 |   785 |     - |   142M |   0 |9800 |9710 |9913 | 209 | 12 |   5 |   0 | 1.204638e+03 | 2.146081e+03 |  78.15%| unknown
  3.0s|     1 |     0 |   825 |     - |   143M |   0 |9800 |9710 |9935 | 231 | 13 |   5 |   0 | 1.205529e+03 | 2.146081e+03 |  78.02%| unknown
 time | node  | left  |LP iter|LP it/n|mem/heur|mdpt |vars |cons |rows |cuts |sepa|confs|strbr|  dualbound   | primalbound  |  gap   | compl. 
  3.0s|     1 |     0 |   859 |     - |   144M |   0 |9800 |9710 |9950 | 246 | 14 |   5 |   0 | 1.206954e+03 | 2.146081e+03 |  77.81%| unknown
  3.0s|     1 |     0 |   896 |     - |   145M |   0 |9800 |9710 |9964 | 260 | 15 |   5 |   0 | 1.207685e+03 | 2.146081e+03 |  77.70%| unknown
  4.0s|     1 |     0 |   900 |     - |   146M |   0 |9800 |9710 |9891 | 263 | 16 |   5 |   0 | 1.207685e+03 | 2.146081e+03 |  77.70%| unknown
  4.0s|     1 |     0 |   903 |     - |   147M |   0 |9800 |9710 |9894 | 266 | 17 |   5 |   0 | 1.207685e+03 | 2.146081e+03 |  77.70%| unknown
  4.0s|     1 |     0 |   941 |     - |   148M |   0 |9800 |9710 |9904 | 276 | 18 |   5 |   0 | 1.208075e+03 | 2.146081e+03 |  77.64%| unknown
  4.0s|     1 |     0 |   985 |     - |   148M |   0 |9800 |9710 |9909 | 281 | 19 |   5 |   0 | 1.208308e+03 | 2.146081e+03 |  77.61%| unknown
  4.0s|     1 |     0 |   997 |     - |   149M |   0 |9800 |9710 |9920 | 292 | 20 |   5 |   0 | 1.208308e+03 | 2.146081e+03 |  77.61%| unknown
  4.0s|     1 |     0 |   998 |     - |   149M |   0 |9800 |9710 |9921 | 293 | 21 |   5 |   0 | 1.208308e+03 | 2.146081e+03 |  77.61%| unknown
  5.0s|     1 |     0 |  1001 |     - |   149M |   0 |9800 |9710 |9868 | 296 | 22 |   5 |   0 | 1.208308e+03 | 2.146081e+03 |  77.61%| unknown
 18.0s|     1 |     2 |  8461 |     - |   151M |   0 |9800 |9716 |9868 | 296 | 24 |  11 |  22 | 1.208327e+03 | 2.146081e+03 |  77.61%| unknown
L 244s|    60 |    61 | 17004 | 271.3 |    alns|  20 |9800 |9775 |9871 | 483 |  2 |  70 | 911 | 1.208327e+03 | 1.942570e+03 |  60.77%| unknown
L 245s|    60 |    61 | 17004 | 271.3 |    alns|  20 |9800 |9775 |9871 | 483 |  2 |  70 | 911 | 1.208327e+03 | 1.923834e+03 |  59.21%| unknown
d 274s|    77 |    78 | 18158 | 225.8 |veclendi|  23 |9800 |9780 |9854 |   0 |  1 |  75 |1012 | 1.208327e+03 | 1.321928e+03 |   9.40%| unknown
  300s|   100 |   101 | 19403 | 185.9 |   182M |  23 |9800 |9780 |9839 | 571 |  4 |  75 |1119 | 1.208344e+03 | 1.321928e+03 |   9.40%| unknown
  335s|   200 |   201 | 26972 | 130.5 |   191M |  23 |9800 |9845 |9840 | 750 |  1 | 141 |1206 | 1.208344e+03 | 1.321928e+03 |   9.40%| unknown
 time | node  | left  |LP iter|LP it/n|mem/heur|mdpt |vars |cons |rows |cuts |sepa|confs|strbr|  dualbound   | primalbound  |  gap   | compl. 
L 355s|   277 |   278 | 33097 | 116.3 |crossove|  23 |9800 |9893 |9833 | 834 |  1 | 190 |1246 | 1.208344e+03 | 1.318934e+03 |   9.15%| unknown
  361s|   300 |   301 | 34850 | 113.2 |   193M |  23 |9800 |9904 |9832 | 867 |  1 | 201 |1260 | 1.208344e+03 | 1.318934e+03 |   9.15%| unknown
  383s|   400 |   397 | 40756 |  99.7 |   196M |  23 |9800 |9981 |9830 | 977 |  1 | 280 |1303 | 1.208344e+03 | 1.318934e+03 |   9.15%| unknown
  407s|   500 |   497 | 49915 |  98.0 |   199M |  23 |9800 |  10k|9835 |1098 |  2 | 324 |1340 | 1.208344e+03 | 1.318934e+03 |   9.15%| unknown
  427s|   600 |   593 | 56051 |  91.9 |   201M |  23 |9800 |  10k|9841 |1189 |  1 | 396 |1381 | 1.208344e+03 | 1.318934e+03 |   9.15%| unknown
  448s|   700 |   693 | 63887 |  90.0 |   206M |  23 |9800 |  10k|9834 |1334 |  1 | 440 |1400 | 1.208346e+03 | 1.318934e+03 |   9.15%| unknown
  473s|   800 |   793 | 70983 |  87.6 |   210M |  24 |9800 |  10k|9831 |1467 |  1 | 527 |1449 | 1.208347e+03 | 1.318934e+03 |   9.15%| unknown
  493s|   900 |   893 | 76879 |  84.4 |   212M |  25 |9800 |  10k|9852 |1606 |  1 | 572 |1483 | 1.208347e+03 | 1.318934e+03 |   9.15%| unknown
  510s|  1000 |   991 | 85888 |  85.0 |   214M |  25 |9800 |  10k|9830 |1731 |  1 | 616 |1494 | 1.208347e+03 | 1.318934e+03 |   9.15%| unknown
  530s|  1100 |  1091 | 91111 |  82.0 |   216M |  33 |9800 |  10k|9834 |1808 |  1 | 683 |1526 | 1.208535e+03 | 1.318934e+03 |   9.13%| unknown
  550s|  1200 |  1189 | 96457 |  79.6 |   217M |  33 |9800 |  10k|9837 |1912 |  1 | 726 |1552 | 1.208535e+03 | 1.318934e+03 |   9.13%| unknown
  565s|  1300 |  1289 |102244 |  77.9 |   218M |  33 |9800 |  10k|9830 |1995 |  1 | 783 |1562 | 1.208535e+03 | 1.318934e+03 |   9.13%| unknown
  588s|  1400 |  1389 |107726 |  76.3 |   222M |  37 |9800 |  10k|9832 |2164 |  1 | 870 |1607 | 1.208535e+03 | 1.318934e+03 |   9.13%| unknown

SCIP Status        : solving was interrupted [time limit reached]
Solving Time (sec) : 600.00
Solving Nodes      : 1454
Primal Bound       : +1.31893432486742e+03 (12 solutions)
Dual Bound         : +1.20853549444922e+03
Gap                : 9.13 %
Trying to solve problem with MTZ Solver Method...
Starting Solver, time limit setted to 10 minutes
Route:  [[0, 9], [1, 0], [2, 1], [3, 2], [4, 13], [5, 4], [6, 5], [7, 6], [8, 7], [9, 10], [10, 11], [11, 12], [12, 21], [13, 3], [14, 15], [15, 16], [16, 17], [17, 8], [18, 27], [19, 18], [20, 19], [21, 20], [22, 14], [23, 22], [24, 23], [25, 24], [26, 25], [27, 36], [28, 29], [29, 30], [30, 31], [31, 32], [32, 41], [33, 40], [34, 26], [35, 34], [36, 28], [37, 46], [38, 47], [39, 38], [40, 39], [41, 42], [42, 33], [43, 35], [44, 43], [45, 54], [46, 45], [47, 37], [48, 49], [49, 50], [50, 51], [51, 52], [52, 53], [53, 44], [54, 55], [55, 56], [56, 57], [57, 58], [58, 66], [59, 48], [60, 59], [61, 60], [62, 61], [63, 73], [64, 63], [65, 64], [66, 65], [67, 68], [68, 69], [69, 70], [70, 79], [71, 62], [72, 74], [73, 72], [74, 75], [75, 83], [76, 67], [77, 76], [78, 77], [79, 80], [80, 71], [81, 90], [82, 81], [83, 84], [84, 85], [85, 94], [86, 96], [87, 86], [88, 78], [89, 97], [90, 91], [91, 93], [92, 82], [93, 87], [94, 92], [95, 89], [96, 95], [97, 98], [98, 88]]
An Otimal Solution was found, yay!
Objective value: 1318.9
Problem solved in 112729 iterations
Problem solved in 1454 nodes
Final Route Configuration succesfully created at:
data/routes/rat99.csv
